tsp_instances/TSP50/instance109.tsp
NODE_COORD_SECTION
0 114 162
1 12 108
2 130 48
3 20 74
4 169 143
5 59 198
6 129 121
7 195 135
8 13 125
9 51 120
10 82 69
11 197 42
12 52 93
13 106 74
14 57 174
15 90 22
16 167 107
17 93 196
18 108 54
19 132 165
20 125 32
21 84 1
22 20 162
23 183 110
24 117 98
25 64 187
26 9 33
27 199 103
28 20 179
29 57 128
30 152 121
31 27 152
32 197 120
33 12 157
34 154 88
35 175 107
36 104 89
37 169 93
38 52 8
39 147 12
40 76 140
41 150 74
42 149 146
43 34 18
44 156 149
45 191 52
46 166 199
47 177 44
48 99 31
49 83 81
