tsp_instances/TSP50/instance109.opt.tour
TOUR_SECTION
1
20
47
18
6
26
15
29
23
34
32
9
2
4
27
44
39
22
16
49
19
3
21
40
48
12
46
42
35
38
17
36
24
28
33
8
5
45
43
31
7
25
37
14
11
50
13
10
30
41
-1